Route #1: 35 11 19 2 17 12 16 13 18 36
Route #2: 5 3 4 9 7 8 10 6 71 1 15 14 33
Route #3: 20 29 30 21 22 28 27 42 44 46 43 53 45 52 48 47 50 51 70 49 25 24 26 23
Route #4: 32 54 55 41 57 56 39 68 40 38 37 69 67 66 65 64 62 63 59 58 61 60 34 31
Cost 238
Time 0.110956
